
  22    4
  10   10   10   10

   0   0   0   0   0   2 2 4 
   7  10  10  10  10   3 10 9 3 
  10  10  10  10  10   3 7 6 5 
   2  10  10  10  10   2 14 6 
   5  10  10  10  10   2 14 8 
   5  10  10  10  10   1 8 
   3  10  10  10  10   1 8 
   6  10  10  10  10   3 16 13 11 
   5  10  10  10  10   3 16 13 11 
   9  10  10  10  10   3 14 13 11 
   9  10  10  10  10   2 15 12 
   5  10  10  10  10   3 20 18 17 
  10  10  10  10  10   3 20 18 17 
   5  10  10  10  10   3 21 18 17 
   1  10  10  10  10   2 19 18 
   6  10  10  10  10   2 21 18 
   5  10  10  10  10   1 19 
   8  10  10  10  10   1 22
   5  10  10  10  10   1 22
   1  10  10  10  10   1 22
   2  10  10  10  10   1 22
   0   0   0   0   0   0 
